1111100 AB
331 369 397 424 441 458 467 476 494 503 512 530 548 566 591 616 641 666 690 703 715 728 740 765 790 815 827 839 852 864 889 914 939 964 989 1009 1029 1049 1068 1087 1094 1105 1115 1124 1143 1162 1181 1200 1218 1233 1241 1248 1258 1274 1318 1362
1111100 BA
381 400 419 437 456 472 488 505 522 531 540 556 564 573 590 607 625 650 675 700 725 749 762 774 787 799 824 849 874 886 898 911 923 948 973 998 1024 1053 1081 1102 1126 1145 1163 1170 1179 1187 1194 1208 1227 1246 1263 1277 1294 1300 1308 1324 1368 1412
1111100 BA red
1288
0000011 AB
331 359 387 415 444 473 502 530 559 588 617 646 675 705 734 763 793 823 853 883 912 942 972 1002 1032 1062 1092 1132 1171 1210 1265 1321 1374
0000011 BA
381 409 438 470 500 529 558 586 615 644 673 702 731 761 790 819 849 879 909 939 968 998 1028 1058 1088 1118 1148 1188 1227 1265 1315 1371 1424
